experiments/21_JSA_experiments/solutions/imx8a/cpu/IN_3.json-ILP-SM-II.out.log
Using license file /home/benedond/gurobi.lic
Using gurobi.env file
Set parameter Threads to value 1
Academic license - for non-commercial use only
Changed value of parameter TimeLimit to 300.0
   Prev: inf  Min: 0.0  Max: inf  Default: inf
Gurobi Optimizer version 9.0.1 build v9.0.1rc0 (linux64)
Optimize a model with 1003 rows, 902 columns and 4274 nonzeros
Model fingerprint: 0x45fa43e3
Variable types: 40 continuous, 862 integer (862 binary)
Coefficient statistics:
  Matrix range     [2e-01, 4e+02]
  Objective range  [2e-02, 4e-01]
  Bounds range     [1e+00, 1e+00]
  RHS range        [1e+00, 1e+03]
Presolve removed 84 rows and 56 columns
Presolve time: 0.02s
Presolved: 919 rows, 846 columns, 3926 nonzeros
Variable types: 39 continuous, 807 integer (807 binary)
Found heuristic solution: objective 4.8015842

Root relaxation: objective 2.256590e+00, 1012 iterations, 0.02 seconds

    Nodes    |    Current Node    |     Objective Bounds      |     Work
 Expl Unexpl |  Obj  Depth IntInf | Incumbent    BestBd   Gap | It/Node Time

     0     0    2.25659    0   95    4.80158    2.25659  53.0%     -    0s
H    0     0                       4.7578218    2.25659  52.6%     -    0s
     0     0    2.42245    0  133    4.75782    2.42245  49.1%     -    0s
H    0     0                       4.2553663    2.42245  43.1%     -    0s
     0     0    2.42744    0   98    4.25537    2.42744  43.0%     -    0s
     0     0    2.46645    0  104    4.25537    2.46645  42.0%     -    0s
H    0     0                       3.7422277    2.46645  34.1%     -    0s
H    0     0                       3.5576733    2.46645  30.7%     -    0s
     0     0    2.47866    0   91    3.55767    2.47866  30.3%     -    0s
     0     0    2.47875    0   89    3.55767    2.47875  30.3%     -    0s
     0     0    2.54417    0  102    3.55767    2.54417  28.5%     -    0s
     0     0    2.58719    0   92    3.55767    2.58719  27.3%     -    0s
     0     0    2.59167    0  115    3.55767    2.59167  27.2%     -    0s
     0     0    2.59230    0  116    3.55767    2.59230  27.1%     -    0s
     0     0    2.59256    0  117    3.55767    2.59256  27.1%     -    0s
     0     0    2.59268    0  126    3.55767    2.59268  27.1%     -    0s
     0     0    2.62332    0  112    3.55767    2.62332  26.3%     -    0s
     0     0    2.63659    0  109    3.55767    2.63659  25.9%     -    0s
     0     0    2.64330    0   97    3.55767    2.64330  25.7%     -    0s
     0     0    2.64557    0  109    3.55767    2.64557  25.6%     -    0s
     0     0    2.64569    0  129    3.55767    2.64569  25.6%     -    0s
     0     0    2.65929    0  102    3.55767    2.65929  25.3%     -    0s
     0     0    2.66189    0  109    3.55767    2.66189  25.2%     -    0s
     0     0    2.66281    0  107    3.55767    2.66281  25.2%     -    0s
     0     0    2.66288    0  107    3.55767    2.66288  25.2%     -    0s
     0     0    2.68169    0   91    3.55767    2.68169  24.6%     -    0s
     0     0    2.68206    0   92    3.55767    2.68206  24.6%     -    0s
     0     0    2.68214    0   92    3.55767    2.68214  24.6%     -    0s
     0     0    2.69940    0  107    3.55767    2.69940  24.1%     -    0s
     0     0    2.70378    0  112    3.55767    2.70378  24.0%     -    0s
     0     0    2.70460    0  119    3.55767    2.70460  24.0%     -    0s
     0     0    2.70472    0  118    3.55767    2.70472  24.0%     -    0s
     0     0    2.71723    0   98    3.55767    2.71723  23.6%     -    0s
     0     0    2.71985    0  110    3.55767    2.71985  23.5%     -    0s
     0     0    2.72031    0   98    3.55767    2.72031  23.5%     -    0s
     0     0    2.72101    0  100    3.55767    2.72101  23.5%     -    0s
     0     0    2.72110    0  122    3.55767    2.72110  23.5%     -    0s
     0     0    2.72468    0  121    3.55767    2.72468  23.4%     -    0s
     0     0    2.72503    0  125    3.55767    2.72503  23.4%     -    0s
     0     0    2.72508    0  123    3.55767    2.72508  23.4%     -    0s
     0     0    2.72762    0  119    3.55767    2.72762  23.3%     -    0s
     0     0    2.72762    0  119    3.55767    2.72762  23.3%     -    0s
     0     2    2.72953    0  119    3.55767    2.72953  23.3%     -    0s
H   27    27                       3.4112277    2.78116  18.5%   145    1s
H   60    55                       3.4010099    2.78116  18.2%   121    1s
H  194   156                       3.3886337    2.78421  17.8%  66.9    1s
*  197   151              45       3.3456139    2.78421  16.8%  66.1    1s
H  257   152                       3.2533366    2.79524  14.1%  60.6    2s
   553   316    2.83493   11  125    3.25334    2.83493  12.9%  57.5    5s
H  763   328                       3.2533365    2.89107  11.1%  73.5    7s
H  871   333                       3.2533364    2.90456  10.7%  72.3    8s
* 1058   349              28       3.2346337    2.91875  9.77%  69.8    8s
  1362   421    3.01192   20   58    3.23463    2.93853  9.15%  66.6   10s
* 2402   807              43       3.2283961    2.97983  7.70%  58.4   13s
* 2555   759              22       3.1870693    2.98618  6.30%  58.3   13s
H 2958   797                       3.1775644    3.00293  5.50%  57.8   15s
H 3527   773                       3.1737525    3.03907  4.24%  57.5   17s
H 3744   474                       3.1273169    3.04915  2.50%  56.6   18s
* 3759   378              28       3.1147129    3.04967  2.09%  56.5   18s

Cutting planes:
  Gomory: 5
  Cover: 17
  Implied bound: 7
  Clique: 5
  MIR: 82
  StrongCG: 6
  Flow cover: 239
  RLT: 8
  Relax-and-lift: 128

Explored 4265 nodes (231819 simplex iterations) in 18.99 seconds
Thread count was 1 (of 4 available processors)

Solution count 10: 3.11471 3.12732 3.17375 ... 3.38863

Optimal solution found (tolerance 1.00e-04)
Best objective 3.114712899348e+00, best bound 3.114481622303e+00, gap 0.0074%
